c ---- [ banner ] ------------------------------------------------------------
c
c Kissat SAT Solver
c 
c Copyright (c) 2021-2024 Armin Biere University of Freiburg
c Copyright (c) 2019-2021 Armin Biere Johannes Kepler University Linz
c 
c Version 4.0.1 43f02cf3e992cb44653b35e5cb26f93281552ae0
c gcc (Ubuntu 13.2.0-23ubuntu4) 13.2.0 -W -Wall -O3 -DNDEBUG
c Thu Sep 12 12:27:46 CEST 2024 Linux abryzen9 6.8.0-41-generic x86_64
c
c ---- [ parsing ] -----------------------------------------------------------
c
c opened and reading DIMACS file:
c
c   /data/artifact/AMulet2.0_artifact/exp4/cnf_resyn3_64/64_64_U_SP_CWT_SE_GenMul_resyn3.cnf
c
c parsed 'p cnf 35624 141659' header
c closing input after reading 2768043 bytes (3 MB)
c finished parsing after 0.03 seconds
c
c ---- [ options ] -----------------------------------------------------------
c
c --stable=0                       (different from default '1')
c
c ---- [ solving ] -----------------------------------------------------------
c
c  seconds switched rate     size/glue tier1  binary           remaining
c         MB reductions conflicts size  tier2     irredundant
c          level restarts redundant glue  trail           variables
c
c *  0.03 10 0 0 0  0 0   0   0 0.0 0 0 0 0 0% 34323 107334 35621 100%
c (  0.05 13 0 0 0  0 0   0   0 0.0 0 0 0 0 0% 34323 107334 35621 100%
c .  0.06 13 0 0 0  0 0   0   0 0.0 0 0 0 0 0% 34319 107334 35621 100%
c c  0.16 21 0 0 0  0 0   0   0 0.0 0 0 0 0 0% 40607 96743 32505 91%
c d  0.17 21 0 0 0  0 0   0   0 0.0 0 0 0 0 0% 34375 96743 32505 91%
c =  0.24 21 0 0 0  0 0   0   0 0.0 0 0 0 0 0% 34279 96743 31929 90%
c d  0.25 21 0 0 0  0 0   0   0 0.0 0 0 0 0 0% 33127 96743 31929 90%
c f  0.37 20 0 0 0  0 0   0   0 0.0 0 0 0 0 0% 34219 93611 33488 94%
c e  0.56 29 0 0 0  0 0   0   0 0.0 0 0 0 0 0% 22863 100738 24390 68%
c )  0.56 29 0 0 0  0 0   0   0 0.0 0 0 0 0 0% 22863 100738 24390 68%
c {  0.59 29 0 0 0  0 0   0   0 0.0 0 0 2 6 0% 22863 100738 24390 68%
c -  0.82 29 160 0 1 241 34 1001 725 3.0 14 5 3 9 18% 22989 100702 24390 68%
c -  1.05 29 246 0 2 374 41 2001 1449 3.3 15 5 3 9 24% 23055 100694 24390 68%
c c  1.24 23 287 0 2 418 41 2504 1854 3.3 15 5 3 9 25% 23600 100275 23980 67%
c d  1.25 23 287 0 2 418 41 2504 1847 3.3 15 5 3 9 25% 22780 100275 23980 67%
c u  1.27 23 287 0 2 418 41 2504 1381 3.3 15 5 3 9 25% 21569 100275 23980 67%
c v  1.30 23 287 0 2 418 41 2504 1271 3.3 15 5 3 9 25% 21569 100275 23980 67%
c w  1.31 23 287 0 2 418 41 2504 1271 3.3 15 5 3 9 25% 21569 100275 23980 67%
c x  1.33 23 287 0 2 418 41 2504 1271 3.3 15 5 3 9 25% 21747 99911 23980 67%
c =  1.42 25 287 0 2 418 41 2504 1271 3.3 15 5 3 9 25% 22505 99911 23601 66%
c
c  seconds   switched   rate       size/glue tier1    binary          remaining
c         MB  reductions conflicts       size  tier2      irredundant
c           level restarts    redundant    glue   trail          variables
c
c d  1.43 25 287 0 2 418 41 2504 1251 3.3 15 5 3 9 25% 21746 99911 23601 66%
c t  1.45 25 287 0 2 418 41 2504 1251 3.3 15 5 3 9 25% 21744 99911 23601 66%
c f  1.48 25 287 0 2 418 41 2504 1251 3.3 15 5 3 9 25% 22054 99127 23956 67%
c u  1.59 27 287 0 2 418 41 2504 1162 3.3 15 5 3 9 25% 22059 99127 23956 67%
c v  1.61 27 287 0 2 418 41 2504 1078 3.3 15 5 3 9 25% 22059 99127 23956 67%
c w  1.63 27 287 0 2 418 41 2504 1076 3.3 15 5 3 9 25% 22059 99127 23956 67%
c x  1.65 27 287 0 2 418 41 2504 1076 3.3 15 5 3 9 25% 22061 98925 23956 67%
c =  1.73 27 287 0 2 418 41 2504 1076 3.3 15 5 3 9 25% 22961 98925 23506 66%
c d  1.74 27 287 0 2 418 41 2504 1071 3.3 15 5 3 9 25% 22057 98925 23506 66%
c t  1.75 27 287 0 2 418 41 2504 1071 3.3 15 5 3 9 25% 22055 98925 23506 66%
c f  1.78 27 287 0 2 418 41 2504 1071 3.3 15 5 3 9 25% 22483 97865 24015 67%
c -  2.04 27 291 0 3 553 39 3416 1683 3.3 16 5 3 9 26% 22523 97863 24015 67%
c -  2.39 27 294 0 4 744 36 5148 2872 2.9 13 5 3 8 26% 22618 97852 24015 67%
c -  3.32 27 267 0 5 1142 39 7149 4173 3.5 18 5 3 8 27% 22678 97850 24015 67%
c d  3.43 27 262 0 5 1170 38 7711 4649 3.4 18 5 3 8 26% 22691 97848 24005 67%
c u  3.48 27 262 0 5 1170 38 7711 3597 3.4 18 5 3 8 26% 22703 97848 24005 67%
c v  3.53 27 262 0 5 1170 38 7711 3253 3.4 18 5 3 8 26% 22703 97848 24005 67%
c w  3.56 27 262 0 5 1170 38 7711 3247 3.4 18 5 3 8 26% 22703 97848 24005 67%
c x  3.60 27 262 0 5 1170 38 7711 3246 3.4 18 5 3 8 26% 22703 97277 24005 67%
c =  3.78 27 262 0 5 1170 38 7711 3246 3.4 18 5 3 8 26% 24125 97275 23294 65%
c
c  seconds   switched    rate       size/glue tier1    binary          remaining
c         MB  reductions  conflicts       size  tier2      irredundant
c           level  restarts    redundant    glue   trail          variables
c
c d  3.79 27 262 0 5 1170 38 7711 3231 3.4 18 5 3 8 26% 22300 97275 23293 65%
c t  3.82 27 262 0 5 1170 38 7711 3231 3.4 18 5 3 8 26% 22269 97275 23293 65%
c f  3.88 27 262 0 5 1170 38 7711 3231 3.4 18 5 3 8 26% 22457 96770 23504 66%
c c  3.97 27 262 0 5 1170 38 7711 3230 3.4 18 5 3 8 26% 22466 96752 23499 66%
c d  3.98 27 262 0 5 1170 38 7711 3230 3.4 18 5 3 8 26% 22456 96752 23499 66%
c u  4.02 27 262 0 5 1170 38 7711 3072 3.4 18 5 3 8 26% 22453 96752 23499 66%
c v  4.05 27 262 0 5 1170 38 7711 2987 3.4 18 5 3 8 26% 22453 96752 23499 66%
c w  4.08 27 262 0 5 1170 38 7711 2982 3.4 18 5 3 8 26% 22453 96752 23499 66%
c x  4.13 27 262 0 5 1170 38 7711 2982 3.4 18 5 3 8 26% 22463 92552 23499 66%
c =  4.30 27 262 0 5 1170 38 7711 2982 3.4 18 5 3 8 26% 22965 92552 23248 65%
c d  4.32 27 262 0 5 1170 38 7711 2972 3.4 18 5 3 8 26% 22292 92552 23248 65%
c t  4.34 27 262 0 5 1170 38 7711 2972 3.4 18 5 3 8 26% 22278 92552 23248 65%
c f  4.40 27 262 0 5 1170 38 7711 2972 3.4 18 5 3 8 26% 22292 92474 23275 65%
c -  4.76 27 269 0 6 1324 36 9385 3955 3.2 17 5 3 8 26% 22384 92459 23275 65%
c o  4.88 27 269 0 6 1356 35 10042 4495 3.2 16 5 3 8 27% 22418 92459 23275 65%
c -  5.37 27 251 0 7 1552 34 11834 5452 3.3 17 5 3 8 27% 22474 92458 23275 65%
c s  5.62 27 255 0 7 1644 35 12519 6050 3.4 18 5 3 8 27% 22502 88719 23275 65%
c e  5.74 27 255 0 7 1644 35 12519 6050 3.4 18 5 3 8 27% 19063 91333 21525 60%
c 2  5.74 27 255 0 7 1644 35 12519 6050 3.4 18 5 3 8 27% 19058 91333 21525 60%
c s  5.76 27 255 0 7 1644 35 12519 6050 3.4 18 5 3 8 27% 19066 90958 21525 60%
c
c  seconds   switched    rate        size/glue tier1    binary          remaining
c         MB  reductions   conflicts       size  tier2      irredundant
c           level  restarts     redundant    glue   trail          variables
c
c e  5.78 27 255 0 7 1644 35 12519 6050 3.4 18 5 3 8 27% 19025 90987 21500 60%
c ^  5.78 27 255 0 7 1644 35 12519 6050 3.4 18 5 3 8 27% 19025 90987 21500 60%
c -  6.36 27 246 0 8 1892 34 14479 6002 3.4 19 5 2 7 27% 19119 90976 21500 60%
c d  6.61 27 235 0 8 2010 33 15792 7030 3.4 18 5 2 7 26% 19130 90970 21479 60%
c u  6.66 27 235 0 8 2010 33 15792 6043 3.4 18 5 2 7 26% 19137 90970 21479 60%
c v  6.72 27 235 0 8 2010 33 15792 5102 3.4 18 5 2 7 26% 19138 90970 21479 60%
c w  6.76 27 235 0 8 2010 33 15792 5093 3.4 18 5 2 7 26% 19138 90970 21479 60%
c x  6.81 27 235 0 8 2010 33 15792 5090 3.4 18 5 2 7 26% 19187 90302 21479 60%
c =  6.99 27 235 0 8 2010 33 15792 5090 3.4 18 5 2 7 26% 19767 90300 21189 59%
c d  7.00 27 235 0 8 2010 33 15792 5064 3.4 18 5 2 7 26% 19091 90300 21187 59%
c t  7.02 27 235 0 8 2010 33 15792 5064 3.4 18 5 2 7 26% 19058 90300 21187 59%
c f  7.09 27 235 0 8 2010 33 15792 5064 3.4 18 5 2 7 26% 19097 90124 21238 60%
c u  7.14 27 235 0 8 2010 33 15792 4827 3.4 18 5 2 7 26% 19099 90124 21238 60%
c v  7.19 27 235 0 8 2010 33 15792 4648 3.4 18 5 2 7 26% 19099 90124 21238 60%
c w  7.24 27 235 0 8 2010 33 15792 4611 3.4 18 5 2 7 26% 19099 90124 21238 60%
c x  7.28 27 235 0 8 2010 33 15792 4609 3.4 18 5 2 7 26% 19154 89607 21238 60%
c =  7.47 27 235 0 8 2010 33 15792 4609 3.4 18 5 2 7 26% 19882 89607 20874 59%
c d  7.48 27 235 0 8 2010 33 15792 4565 3.4 18 5 2 7 26% 19084 89607 20874 59%
c t  7.51 27 235 0 8 2010 33 15792 4565 3.4 18 5 2 7 26% 19055 89607 20874 59%
c f  7.54 27 235 0 8 2010 33 15792 4565 3.4 18 5 2 7 26% 19012 89516 20901 59%
c
c  seconds   switched    rate        size/glue tier1    binary          remaining
c         MB  reductions   conflicts       size  tier2      irredundant
c           level  restarts     redundant    glue   trail          variables
c
c -  7.85 27 235 0 9 2157 32 17307 5120 3.4 18 5 2 7 26% 19056 89516 20901 59%
c o  8.53 27 240 0 9 2427 32 20046 7563 3.3 18 5 2 7 27% 19151 89514 20901 59%
c -  8.62 27 241 0 10 2477 33 20307 6843 3.3 18 5 2 7 27% 19153 89514 20901 59%
c -  9.34 27 247 0 11 2722 32 23469 8460 3.3 18 6 2 7 27% 19249 89513 20901 59%
c s  9.58 27 246 0 11 2824 31 25022 9804 3.2 18 6 2 7 26% 19315 87928 20901 59%
c e  9.73 27 246 0 11 2824 31 25022 9804 3.2 18 6 2 7 26% 16511 92245 19127 54%
c 2  9.73 27 246 0 11 2824 31 25022 9804 3.2 18 6 2 7 26% 16494 92245 19127 54%
c s  9.75 27 246 0 11 2824 31 25022 9804 3.2 18 6 2 7 26% 16558 91068 19127 54%
c e  9.78 27 246 0 11 2824 31 25022 9804 3.2 18 6 2 7 26% 16422 91269 19039 53%
c ^  9.78 27 246 0 11 2824 31 25022 9804 3.2 18 6 2 7 26% 16422 91269 19039 53%
c - 10.16 28 241 0 12 2943 31 26785 8668 3.1 17 6 2 7 27% 16462 91269 19039 53%
c c 10.30 28 241 0 12 2971 31 26920 8797 3.1 17 6 2 7 27% 16486 91170 19020 53%
c d 10.31 28 241 0 12 2971 31 26920 8771 3.1 17 6 2 7 27% 16440 91170 19015 53%
c u 10.37 28 241 0 12 2971 31 26920 7585 3.1 17 6 2 7 27% 16463 91170 19015 53%
c v 10.43 28 241 0 12 2971 31 26920 6609 3.1 17 6 2 7 27% 16464 91170 19015 53%
c w 10.46 28 241 0 12 2971 31 26920 6603 3.1 17 6 2 7 27% 16464 91170 19015 53%
c x 10.54 28 241 0 12 2971 31 26920 6598 3.1 17 6 2 7 27% 16513 89826 19015 53%
c = 10.77 28 241 0 12 2971 31 26920 6598 3.1 17 6 2 7 27% 17807 89821 18368 52%
c d 10.78 28 241 0 12 2971 31 26920 6534 3.1 17 6 2 7 27% 16495 89821 18367 52%
c t 10.81 28 241 0 12 2971 31 26920 6534 3.1 17 6 2 7 27% 16326 89821 18367 52%
c
c  seconds   switched     rate        size/glue tier1    binary          remaining
c         MB   reductions   conflicts       size  tier2      irredundant
c           level   restarts     redundant    glue   trail          variables
c
c f 10.90 28 241 0 12 2971 31 26920 6534 3.1 17 6 2 7 27% 16420 89208 18476 52%
c u 10.96 28 241 0 12 2971 31 26920 6181 3.1 17 6 2 7 27% 16425 89208 18476 52%
c v 11.00 28 241 0 12 2971 31 26920 5989 3.1 17 6 2 7 27% 16425 89208 18476 52%
c w 11.02 28 241 0 12 2971 31 26920 5986 3.1 17 6 2 7 27% 16425 89208 18476 52%
c x 11.11 28 241 0 12 2971 31 26920 5986 3.1 17 6 2 7 27% 16430 87054 18476 52%
c = 11.36 28 241 0 12 2971 31 26920 5986 3.1 17 6 2 7 27% 18216 87054 17583 49%
c d 11.37 28 241 0 12 2971 31 26920 5889 3.1 17 6 2 7 27% 16374 87054 17583 49%
c t 11.40 28 241 0 12 2971 31 26920 5889 3.1 17 6 2 7 27% 16257 87054 17583 49%
c f 11.45 28 241 0 12 2971 31 26920 5889 3.1 17 6 2 7 27% 16280 86522 17674 50%
c - 12.20 28 227 0 13 3293 29 30251 7768 3.0 17 6 2 7 28% 16332 86521 17674 50%
c - 12.90 28 214 0 14 3568 28 33857 9835 2.9 16 6 2 7 27% 16404 86520 17674 50%
c - 13.62 28 206 0 15 3860 27 37600 11449 2.8 16 6 2 7 27% 16454 86520 17674 50%
c o 14.22 28 199 0 15 4079 26 40330 13796 2.8 16 6 2 7 27% 16497 86519 17674 50%
c d 14.49 28 198 0 15 4194 26 41247 14636 2.8 16 6 2 7 27% 16480 86519 17661 50%
c u 14.59 28 198 0 15 4194 26 41247 12838 2.8 16 6 2 7 27% 16492 86519 17661 50%
c v 14.67 28 198 0 15 4194 26 41247 12168 2.8 16 6 2 7 27% 16494 86519 17661 50%
c w 14.72 28 198 0 15 4194 26 41247 12168 2.8 16 6 2 7 27% 16494 86519 17661 50%
c x 14.82 28 198 0 15 4194 26 41247 12166 2.8 16 6 2 7 27% 16494 80772 17661 50%
c = 15.11 28 198 0 15 4194 26 41247 12166 2.8 16 6 2 7 27% 17328 80749 17243 48%
c d 15.12 28 198 0 15 4194 26 41247 12061 2.8 16 6 2 7 27% 16474 80749 17242 48%
c
c  seconds   switched     rate         size/glue tier1    binary          remaining
c         MB   reductions   conflicts        size  tier2      irredundant
c           level   restarts      redundant    glue   trail          variables
c
c t 15.14 28 198 0 15 4194 26 41247 12061 2.8 16 6 2 7 27% 16290 80749 17242 48%
c f 15.18 28 198 0 15 4194 26 41247 12061 2.8 16 6 2 7 27% 16344 80520 17288 49%
c u 15.27 28 198 0 15 4194 26 41247 11578 2.8 16 6 2 7 27% 16353 80520 17288 49%
c v 15.37 28 198 0 15 4194 26 41247 10438 2.8 16 6 2 7 27% 16357 80520 17288 49%
c w 15.42 28 198 0 15 4194 26 41247 10436 2.8 16 6 2 7 27% 16357 80520 17288 49%
c x 15.50 28 198 0 15 4194 26 41247 10436 2.8 16 6 2 7 27% 16358 78739 17288 49%
c = 15.78 28 198 0 15 4194 26 41247 10436 2.8 16 6 2 7 27% 16698 78739 17118 48%
c d 15.79 28 198 0 15 4194 26 41247 10370 2.8 16 6 2 7 27% 16347 78739 17116 48%
c t 15.82 28 198 0 15 4194 26 41247 10370 2.8 16 6 2 7 27% 16302 78739 17116 48%
c f 15.84 28 198 0 15 4194 26 41247 10370 2.8 16 6 2 7 27% 16339 78601 17142 48%
c - 15.95 28 198 0 16 4229 26 41472 9278 2.8 16 6 2 7 27% 16342 78601 17142 48%
c - 17.02 28 191 0 17 4723 26 45472 11429 2.7 15 6 2 7 28% 16390 78601 17142 48%
c - 17.91 28 186 0 18 5130 26 49596 13441 2.7 15 6 2 6 28% 16469 78597 17142 48%
c s 18.50 28 184 0 18 5424 25 52127 15725 2.7 16 6 2 6 28% 16512 76060 17142 48%
c e 18.62 28 184 0 18 5424 25 52127 15725 2.7 16 6 2 6 28% 14962 78750 16203 45%
c 2 18.62 28 184 0 18 5424 25 52127 15725 2.7 16 6 2 6 28% 14959 78750 16203 45%
c s 18.63 28 184 0 18 5424 25 52127 15725 2.7 16 6 2 6 28% 15018 78192 16203 45%
c e 18.65 28 184 0 18 5424 25 52127 15725 2.7 16 6 2 6 28% 14942 78303 16163 45%
c ^ 18.65 28 184 0 18 5424 25 52127 15725 2.7 16 6 2 6 28% 14942 78303 16163 45%
c - 19.01 29 181 0 19 5554 25 53838 13823 2.6 15 6 2 6 28% 14966 78301 16163 45%
c
c  seconds   switched     rate         size/glue tier1    binary          remaining
c         MB   reductions   conflicts        size  tier2      irredundant
c           level   restarts      redundant    glue   trail          variables
c
c - 20.05 29 176 0 20 5982 24 58197 15587 2.6 15 6 2 6 29% 15015 78298 16163 45%
c c 20.26 29 175 0 20 6050 24 58874 16217 2.6 15 6 2 6 29% 15044 78232 16149 45%
c d 20.27 29 175 0 20 6050 24 58874 16195 2.6 15 6 2 6 29% 15016 78232 16149 45%
c u 20.37 29 175 0 20 6050 24 58874 13949 2.6 15 6 2 6 29% 15030 78232 16149 45%
c v 20.47 29 175 0 20 6050 24 58874 12153 2.6 15 6 2 6 29% 15031 78232 16149 45%
c w 20.50 29 175 0 20 6050 24 58874 12124 2.6 15 6 2 6 29% 15031 78232 16149 45%
c x 20.61 29 175 0 20 6050 24 58874 12120 2.6 15 6 2 6 29% 15069 77515 16149 45%
c = 21.04 29 175 0 20 6050 24 58874 12120 2.6 15 6 2 6 29% 16425 77463 15464 43%
c d 21.05 29 175 0 20 6050 24 58874 11913 2.6 15 6 2 6 29% 15015 77463 15464 43%
c t 21.08 29 175 0 20 6050 24 58874 11913 2.6 15 6 2 6 29% 14772 77463 15464 43%
c f 21.15 29 175 0 20 6050 24 58874 11913 2.6 15 6 2 6 29% 14910 76869 15541 44%
c u 21.24 29 175 0 20 6050 24 58874 11172 2.6 15 6 2 6 29% 14914 76869 15541 44%
c v 21.31 29 175 0 20 6050 24 58874 10772 2.6 15 6 2 6 29% 14914 76869 15541 44%
c w 21.34 29 175 0 20 6050 24 58874 10746 2.6 15 6 2 6 29% 14914 76869 15541 44%
c x 21.53 29 175 0 20 6050 24 58874 10734 2.6 15 6 2 6 29% 15053 71986 15541 44%
c = 21.64 29 175 0 20 6050 24 58874 10734 2.6 15 6 2 6 29% 15109 71986 15513 44%
c d 21.65 29 175 0 20 6050 24 58874 10728 2.6 15 6 2 6 29% 15049 71986 15513 44%
c t 21.67 29 175 0 20 6050 24 58874 10728 2.6 15 6 2 6 29% 15019 71986 15513 44%
c f 21.70 29 175 0 20 6050 24 58874 10728 2.6 15 6 2 6 29% 15025 71959 15517 44%
c - 22.47 29 170 0 21 6457 24 62669 12560 2.5 15 6 2 6 29% 15072 71959 15517 44%
c
c  seconds   switched     rate         size/glue tier1    binary          remaining
c         MB   reductions   conflicts        size  tier2      irredundant
c           level   restarts      redundant    glue   trail          variables
c
c - 23.13 29 166 0 22 6899 23 67252 14952 2.5 15 6 2 6 30% 15105 71959 15517 44%
c o 23.62 29 164 0 22 7265 23 70333 17802 2.5 15 6 2 6 30% 15129 71959 15517 44%
c - 23.84 29 162 0 23 7417 23 71943 16942 2.5 15 6 2 6 30% 15148 71959 15517 44%
c - 24.59 29 160 0 24 7977 23 76739 18639 2.5 15 6 2 6 30% 15224 71958 15517 44%
c d 24.99 29 158 0 24 8278 23 79938 21557 2.5 15 6 2 6 30% 15221 71958 15502 44%
c u 25.07 29 158 0 24 8278 23 79938 18578 2.5 15 6 2 6 30% 15233 71958 15502 44%
c v 25.14 29 158 0 24 8278 23 79938 16883 2.5 15 6 2 6 30% 15234 71958 15502 44%
c w 25.18 29 158 0 24 8278 23 79938 16878 2.5 15 6 2 6 30% 15234 71958 15502 44%
c x 25.25 29 158 0 24 8278 23 79938 16875 2.5 15 6 2 6 30% 15271 71511 15502 44%
c = 25.64 29 158 0 24 8278 23 79938 16875 2.5 15 6 2 6 30% 16156 71452 15054 42%
c d 25.65 29 158 0 24 8278 23 79938 16395 2.5 15 6 2 6 30% 15236 71452 15054 42%
c t 25.66 29 158 0 24 8278 23 79938 16395 2.5 15 6 2 6 30% 15106 71452 15054 42%
c f 25.68 29 158 0 24 8278 23 79938 16395 2.5 15 6 2 6 30% 15168 71181 15086 42%
c u 25.75 29 158 0 24 8278 23 79938 15495 2.5 15 6 2 6 30% 15175 71181 15086 42%
c v 25.81 29 158 0 24 8278 23 79938 14482 2.5 15 6 2 6 30% 15175 71181 15086 42%
c w 25.86 29 158 0 24 8278 23 79938 14373 2.5 15 6 2 6 30% 15175 71181 15086 42%
c x 25.93 29 158 0 24 8278 23 79938 14370 2.5 15 6 2 6 30% 15184 68819 15086 42%
c = 26.29 29 158 0 24 8278 23 79938 14370 2.5 15 6 2 6 30% 15286 68819 15035 42%
c d 26.30 29 158 0 24 8278 23 79938 14321 2.5 15 6 2 6 30% 15181 68819 15035 42%
c t 26.31 29 158 0 24 8278 23 79938 14321 2.5 15 6 2 6 30% 15162 68819 15035 42%
c
c  seconds   switched     rate         size/glue tier1    binary          remaining
c         MB   reductions   conflicts        size  tier2      irredundant
c           level   restarts      redundant    glue   trail          variables
c
c f 26.32 29 158 0 24 8278 23 79938 14321 2.5 15 6 2 6 30% 15174 68765 15042 42%
c - 26.54 29 157 0 25 8431 23 81637 14008 2.5 15 6 2 6 30% 15181 68764 15042 42%
c - 27.28 29 154 0 26 8990 23 86638 16607 2.4 15 6 2 6 31% 15219 68763 15042 42%
c - 27.90 29 152 0 27 9462 22 91737 18845 2.4 15 6 2 6 31% 15273 68763 15042 42%
c s 28.43 29 151 0 27 9842 22 95784 22562 2.4 15 6 2 6 31% 15309 68232 15042 42%
c e 28.54 29 151 0 27 9842 22 95784 22562 2.4 15 6 2 6 31% 11195 79481 12698 36%
c 2 28.54 29 151 0 27 9842 22 95784 22562 2.4 15 6 2 6 31% 11193 79481 12698 36%
c s 28.57 29 151 0 27 9842 22 95784 22562 2.4 15 6 2 6 31% 11238 78487 12698 36%
c e 28.58 29 151 0 27 9842 22 95784 22562 2.4 15 6 2 6 31% 11093 78773 12643 35%
c ^ 28.58 29 151 0 27 9842 22 95784 22562 2.4 15 6 2 6 31% 11093 78773 12643 35%
c - 28.72 29 150 0 28 9969 22 96933 14940 2.4 15 6 2 6 31% 11100 78773 12643 35%
c - 29.22 29 147 0 29 10364 21 102224 17497 2.4 15 6 2 6 31% 11126 78771 12643 35%
c d 29.44 29 146 0 29 10525 21 104564 19506 2.4 15 6 2 6 30% 11128 78771 12632 35%
c u 29.51 29 146 0 29 10525 21 104564 16704 2.4 15 6 2 6 30% 11149 78771 12632 35%
c v 29.57 29 146 0 29 10525 21 104564 14578 2.4 15 6 2 6 30% 11156 78771 12632 35%
c w 29.61 29 146 0 29 10525 21 104564 14556 2.4 15 6 2 6 30% 11156 78771 12632 35%
c x 29.67 29 146 0 29 10525 21 104564 14539 2.4 15 6 2 6 30% 11165 77892 12632 35%
c = 30.05 29 146 0 29 10525 21 104564 14539 2.4 15 6 2 6 30% 11439 77627 12464 35%
c d 30.05 29 146 0 29 10525 21 104564 13967 2.4 15 6 2 6 30% 11140 77625 12464 35%
c t 30.06 29 146 0 29 10525 21 104564 13967 2.4 15 6 2 6 30% 11064 77625 12464 35%
c
c  seconds   switched      rate          size/glue tier1    binary          remaining
c         MB   reductions    conflicts         size  tier2      irredundant
c           level   restarts        redundant    glue   trail          variables
c
c f 30.16 29 146 0 29 10525 21 104564 13967 2.4 15 6 2 6 30% 11100 77436 12480 35%
c u 30.24 29 146 0 29 10525 21 104564 13388 2.4 15 6 2 6 30% 11093 77436 12480 35%
c v 30.28 29 146 0 29 10525 21 104564 12856 2.4 15 6 2 6 30% 11094 77436 12480 35%
c w 30.32 29 146 0 29 10525 21 104564 12685 2.4 15 6 2 6 30% 11094 77436 12480 35%
c x 30.43 29 146 0 29 10525 21 104564 12671 2.4 15 6 2 6 30% 11159 75566 12480 35%
c = 30.73 29 146 0 29 10525 21 104564 12671 2.4 15 6 2 6 30% 11305 75470 12374 35%
c } 30.73 29 146 0 29 10525 21 104564 12671 2.4 15 6 2 6 30% 11305 75470 12446 35%
c 0 30.73 29 146 0 29 10525 21 104564 12671 2.4 15 6 2 6 30% 11305 75470 12446 35%
c
c ---- [ result ] ------------------------------------------------------------
c
s UNSATISFIABLE
c
c ---- [ profiling ] ---------------------------------------------------------
c
c          20.04   65.20 %  search
c          20.04   65.20 %  focused
c          10.11   32.89 %  simplify
c           9.64   31.38 %  probe
c           3.97   12.93 %  sweep
c           3.45   11.22 %  vivify
c           0.88    2.86 %  factor
c           0.79    2.56 %  eliminate
c           0.58    1.90 %  substitute
c           0.51    1.67 %  preprocess
c           0.51    1.65 %  congruence
c           0.19    0.63 %  reduce
c           0.18    0.59 %  fastel
c           0.16    0.53 %  subsume
c           0.16    0.52 %  transitive
c           0.09    0.30 %  backbone
c           0.05    0.16 %  lucky
c           0.03    0.08 %  parse
c =============================================
c          30.73  100.00 %  total
c
c ---- [ statistics ] --------------------------------------------------------
c
c chronological:                         3288                3 %  conflicts
c conflicts:                           104564             3402.82 per second
c congruent:                             3564               10 %  variables
c decisions:                          2250387               21.52 per conflict
c eliminated:                           16113               45 %  variables
c factored:                              3147                9 %  variables
c fast_eliminated:                       9098               56 %  eliminated
c fast_strengthened:                      357                9 %  per strengthened
c fast_subsumed:                           90                1 %  per subsumed
c propagations:                     122420930          3983932    per second
c reductions:                              29             3606    interval
c reordered:                                4            26141    interval
c restarts:                             10525               10    interval
c strengthened:                          3902                0 %  checks
c substituted:                          10127               28 %  variables
c subsumed:                             11397                0 %  checks
c switched:                                 0                0    interval
c vivified:                             76131               14 %  checks
c
c ---- [ glue usage ] --------------------------------------------------------
c
c focused glue 2 used 46750 clauses 28.76% accumulated 64.65% tier1
c focused glue 3 used 22718 clauses 13.98% accumulated 78.63%
c focused glue 4 used 10130 clauses  6.23% accumulated 84.86%
c focused glue 5 used  6505 clauses  4.00% accumulated 88.86%
c focused glue 6 used  4120 clauses  2.53% accumulated 91.40% tier2
c
c ---- [ resources ] ---------------------------------------------------------
c
c maximum-resident-set-size:         30494720 bytes         29 MB
c process-time:                            31s              30.73 seconds
c
c ---- [ shutting down ] -----------------------------------------------------
c
c exit 20
